DIMACS_lns/graph-1000-9.col
p edge 1000 1827
e 1 770
e 1 349
e 1 554
e 2 842
e 2 69
e 2 188
e 2 873
e 2 326
e 2 194
e 2 738
e 3 584
e 3 49
e 3 309
e 3 310
e 3 838
e 3 970
e 5 859
e 5 265
e 5 99
e 5 200
e 5 401
e 7 624
e 7 22
e 7 972
e 8 66
e 8 733
e 8 158
e 8 964
e 8 167
e 9 693
e 9 192
e 9 785
e 11 853
e 11 280
e 11 980
e 11 995
e 11 464
e 11 113
e 11 415
e 13 560
e 13 779
e 13 430
e 13 913
e 13 346
e 13 362
e 14 974
e 14 218
e 14 314
e 14 897
e 15 711
e 15 641
e 15 395
e 16 792
e 16 532
e 16 301
e 16 487
e 17 363
e 17 927
e 17 940
e 17 888
e 17 95
e 17 429
e 18 935
e 18 979
e 18 807
e 18 326
e 18 773
e 22 501
e 22 485
e 22 352
e 22 990
e 22 42
e 22 730
e 23 593
e 23 771
e 23 310
e 23 868
e 23 530
e 23 558
e 24 633
e 24 316
e 24 444
e 24 303
e 24 570
e 25 530
e 25 702
e 25 119
e 25 72
e 25 921
e 26 908
e 26 675
e 26 234
e 26 124
e 27 373
e 27 801
e 27 833
e 27 315
e 28 453
e 28 397
e 28 75
e 30 206
e 30 250
e 30 927
e 30 252
e 30 74
e 30 846
e 30 75
e 31 912
e 31 786
e 31 801
e 31 969
e 31 284
e 33 981
e 33 969
e 33 176
e 33 265
e 33 928
e 34 711
e 34 950
e 34 370
e 34 185
e 34 362
e 34 137
e 36 464
e 36 79
e 36 395
e 36 915
e 36 491
e 36 244
e 36 700
e 36 551
e 36 733
e 36 63
e 37 149
e 37 581
e 37 533
e 37 942
e 37 125
e 37 742
e 37 775
e 37 485
e 38 601
e 38 478
e 38 734
e 38 804
e 38 964
e 39 95
e 39 508
e 39 690
e 39 348
e 40 68
e 40 188
e 40 938
e 40 712
e 40 705
e 40 169
e 40 391
e 41 980
e 41 214
e 41 296
e 41 280
e 42 543
e 42 835
e 42 888
e 42 591
e 42 100
e 42 554
e 44 392
e 44 326
e 44 988
e 44 376
e 44 823
e 44 95
e 44 258
e 45 960
e 45 199
e 45 414
e 45 385
e 45 874
e 45 160
e 45 215
e 45 937
e 45 557
e 46 866
e 46 73
e 46 309
e 46 484
e 47 65
e 47 424
e 47 602
e 47 503
e 47 958
e 47 835
e 47 240
e 48 408
e 48 816
e 48 547
e 48 344
e 48 328
e 48 301
e 49 127
e 49 739
e 49 907
e 49 502
e 50 664
e 50 591
e 50 371
e 50 141
e 50 313
e 51 911
e 51 462
e 51 313
e 51 491
e 54 87
e 54 993
e 54 737
e 55 287
e 55 608
e 55 820
e 55 656
e 55 464
e 55 990
e 56 164
e 56 560
e 56 187
e 59 478
e 59 136
e 59 119
e 59 76
e 59 951
e 59 507
e 60 995
e 60 114
e 60 367
e 61 648
e 61 518
e 61 70
e 62 401
e 62 645
e 62 569
e 63 175
e 63 821
e 63 219
e 63 254
e 64 791
e 64 870
e 64 931
e 65 460
e 65 300
e 65 358
e 66 671
e 66 286
e 66 990
e 66 707
e 66 816
e 68 282
e 68 192
e 68 741
e 68 337
e 69 507
e 69 842
e 69 451
e 69 980
e 70 500
e 70 950
e 70 375
e 70 624
e 71 393
e 71 675
e 71 248
e 71 366
e 72 765
e 72 529
e 72 481
e 72 587
e 73 229
e 73 695
e 73 668
e 73 271
e 73 258
e 73 355
e 73 314
e 74 694
e 74 881
e 74 204
e 75 151
e 75 418
e 76 724
e 76 709
e 76 667
e 76 450
e 77 624
e 77 666
e 77 600
e 77 751
e 79 245
e 79 521
e 79 473
e 79 977
e 80 269
e 80 536
e 80 563
e 80 965
e 83 749
e 83 493
e 83 279
e 83 267
e 83 237
e 84 694
e 84 356
e 84 865
e 84 890
e 84 773
e 84 879
e 86 892
e 86 240
e 86 353
e 87 776
e 87 340
e 87 240
e 87 107
e 87 120
e 88 619
e 88 438
e 88 762
e 90 766
e 90 113
e 90 916
e 91 618
e 91 691
e 91 254
e 92 942
e 92 113
e 92 937
e 92 690
e 92 253
e 94 798
e 94 975
e 94 533
e 94 341
e 94 828
e 95 787
e 95 328
e 95 812
e 95 759
e 96 959
e 96 251
e 96 897
e 96 960
e 96 339
e 98 536
e 98 763
e 98 534
e 98 423
e 99 744
e 99 123
e 99 295
e 100 860
e 100 113
e 100 612
e 100 331
e 101 220
e 101 323
e 101 749
e 101 674
e 101 948
e 102 479
e 102 440
e 102 344
e 102 864
e 102 262
e 104 464
e 104 332
e 104 311
e 104 838
e 105 768
e 105 677
e 105 228
e 105 128
e 106 194
e 106 858
e 106 951
e 106 920
e 107 345
e 107 246
e 107 904
e 107 333
e 107 251
e 111 690
e 111 919
e 111 757
e 113 945
e 113 186
e 114 846
e 114 956
e 114 949
e 114 538
e 115 935
e 115 736
e 115 907
e 117 375
e 117 912
e 117 583
e 118 875
e 118 676
e 118 222
e 118 589
e 119 734
e 119 830
e 119 560
e 120 915
e 120 534
e 120 720
e 120 388
e 122 193
e 122 882
e 122 896
e 122 246
e 122 674
e 122 440
e 122 951
e 123 767
e 123 691
e 123 983
e 123 502
e 123 321
e 123 281
e 123 187
e 124 255
e 124 330
e 124 611
e 124 873
e 125 798
e 125 272
e 125 500
e 127 759
e 127 563
e 127 453
e 128 814
e 128 963
e 129 546
e 129 498
e 129 326
e 129 605
e 130 797
e 130 790
e 130 684
e 130 487
e 130 538
e 130 824
e 130 427
e 133 533
e 133 144
e 133 177
e 133 684
e 133 786
e 134 592
e 134 962
e 134 318
e 134 413
e 135 866
e 135 897
e 135 951
e 135 540
e 136 793
e 136 240
e 136 912
e 136 852
e 136 450
e 136 358
e 137 438
e 137 271
e 138 762
e 138 802
e 138 339
e 141 395
e 141 439
e 141 323
e 141 199
e 141 601
e 141 470
e 143 757
e 143 625
e 143 515
e 143 459
e 144 910
e 144 490
e 144 904
e 144 252
e 144 223
e 145 475
e 145 886
e 145 234
e 149 920
e 149 900
e 149 831
e 149 866
e 149 858
e 149 538
e 149 221
e 150 263
e 150 766
e 150 868
e 150 469
e 151 705
e 151 584
e 151 812
e 152 278
e 152 450
e 152 785
e 152 514
e 152 328
e 152 463
e 155 965
e 155 709
e 155 720
e 157 467
e 157 350
e 157 286
e 157 193
e 158 993
e 158 571
e 158 664
e 158 925
e 158 657
e 159 508
e 159 385
e 159 683
e 160 191
e 160 710
e 160 548
e 162 981
e 162 664
e 162 682
e 162 481
e 162 375
e 163 331
e 163 499
e 163 387
e 163 307
e 163 905
e 163 828
e 164 841
e 164 666
e 164 674
e 165 342
e 165 770
e 165 888
e 166 548
e 166 856
e 166 696
e 167 824
e 167 998
e 167 332
e 167 833
e 167 311
e 168 353
e 168 626
e 168 529
e 169 453
e 169 581
e 169 490
e 169 738
e 170 673
e 170 879
e 170 761
e 170 977
e 170 328
e 170 225
e 172 356
e 172 397
e 172 775
e 174 277
e 174 448
e 174 565
e 174 331
e 174 869
e 175 595
e 175 875
e 175 683
e 175 662
e 175 497
e 175 353
e 175 738
e 176 947
e 176 850
e 176 184
e 176 659
e 176 341
e 176 331
e 177 694
e 177 579
e 177 595
e 177 608
e 177 474
e 178 590
e 178 712
e 178 591
e 178 998
e 178 774
e 180 940
e 180 700
e 180 864
e 180 469
e 180 248
e 181 593
e 181 690
e 181 589
e 181 188
e 181 386
e 182 642
e 182 372
e 182 310
e 182 492
e 182 605
e 183 977
e 183 567
e 183 226
e 184 239
e 184 774
e 184 267
e 185 198
e 185 958
e 185 419
e 185 600
e 186 526
e 186 625
e 186 420
e 186 451
e 187 383
e 187 407
e 187 648
e 187 892
e 187 977
e 187 371
e 188 194
e 190 818
e 190 528
e 190 191
e 190 649
e 191 761
e 191 250
e 191 279
e 192 995
e 192 973
e 193 251
e 193 979
e 193 709
e 193 823
e 193 463
e 193 766
e 194 280
e 195 904
e 195 364
e 195 759
e 195 621
e 195 262
e 195 308
e 195 865
e 197 855
e 197 666
e 197 236
e 198 333
e 198 295
e 199 392
e 199 845
e 199 898
e 199 527
e 200 904
e 200 447
e 200 315
e 201 748
e 201 253
e 201 716
e 202 526
e 202 546
e 202 890
e 202 612
e 204 896
e 204 515
e 204 851
e 206 618
e 206 557
e 206 947
e 207 921
e 207 400
e 207 703
e 209 358
e 209 859
e 209 263
e 209 421
e 212 525
e 212 967
e 212 470
e 212 295
e 213 263
e 213 948
e 213 533
e 214 462
e 214 632
e 215 248
e 215 891
e 215 421
e 215 610
e 217 223
e 217 782
e 217 391
e 217 370
e 218 625
e 218 372
e 218 572
e 219 450
e 219 446
e 220 469
e 220 895
e 220 429
e 220 962
e 221 508
e 221 909
e 221 724
e 221 342
e 222 839
e 222 256
e 223 448
e 223 817
e 223 880
e 223 765
e 225 851
e 225 921
e 225 839
e 226 779
e 226 967
e 226 713
e 227 431
e 227 759
e 227 579
e 227 820
e 227 347
e 228 435
e 228 238
e 228 451
e 228 481
e 228 956
e 228 910
e 229 618
e 229 779
e 229 375
e 233 684
e 233 824
e 233 473
e 233 719
e 234 502
e 234 355
e 234 684
e 235 644
e 235 262
e 235 812
e 235 538
e 235 604
e 236 662
e 236 833
e 237 285
e 237 964
e 238 662
e 238 319
e 238 610
e 238 471
e 238 853
e 238 258
e 238 934
e 239 408
e 239 307
e 239 854
e 239 784
e 239 497
e 239 342
e 240 698
e 240 550
e 240 975
e 241 485
e 241 738
e 241 556
e 242 423
e 242 312
e 242 522
e 244 287
e 244 911
e 244 959
e 244 784
e 245 415
e 245 759
e 245 521
e 246 914
e 246 730
e 248 437
e 250 370
e 251 447
e 251 545
e 251 376
e 251 488
e 251 500
e 251 499
e 251 386
e 252 609
e 252 331
e 252 837
e 252 474
e 253 849
e 253 703
e 253 940
e 253 363
e 254 790
e 254 529
e 255 494
e 255 362
e 256 312
e 256 322
e 256 621
e 256 328
e 258 491
e 258 336
e 258 541
e 258 497
e 259 508
e 259 951
e 259 493
e 259 507
e 260 654
e 260 604
e 260 507
e 261 696
e 261 426
e 261 534
e 262 720
e 262 860
e 262 911
e 262 324
e 263 771
e 265 898
e 265 583
e 267 854
e 267 364
e 267 420
e 269 488
e 269 790
e 271 315
e 272 525
e 272 552
e 272 823
e 273 841
e 273 990
e 273 286
e 273 458
e 274 619
e 274 712
e 274 398
e 274 397
e 275 738
e 275 841
e 275 502
e 275 793
e 275 545
e 275 467
e 276 394
e 276 948
e 276 655
e 276 330
e 276 910
e 276 684
e 277 672
e 277 662
e 278 660
e 278 326
e 278 501
e 278 577
e 279 986
e 279 571
e 279 826
e 279 315
e 280 744
e 280 467
e 280 439
e 281 587
e 281 624
e 281 713
e 281 353
e 281 375
e 281 532
e 281 407
e 282 735
e 282 822
e 284 874
e 284 698
e 284 690
e 284 392
e 284 365
e 284 458
e 285 410
e 285 935
e 286 551
e 286 874
e 286 619
e 286 803
e 287 896
e 287 897
e 287 618
e 287 360
e 287 300
e 287 849
e 288 837
e 288 364
e 288 548
e 288 578
e 291 959
e 291 534
e 291 538
e 291 652
e 291 410
e 291 945
e 296 708
e 296 516
e 296 506
e 296 651
e 296 803
e 298 951
e 298 818
e 298 609
e 299 576
e 299 583
e 299 974
e 299 632
e 300 547
e 300 742
e 300 854
e 300 853
e 301 479
e 301 681
e 301 494
e 303 676
e 303 720
e 303 907
e 307 715
e 307 408
e 308 774
e 308 319
e 308 923
e 309 400
e 310 438
e 310 604
e 310 619
e 310 640
e 310 703
e 310 778
e 311 795
e 311 627
e 311 754
e 311 992
e 311 997
e 311 370
e 312 918
e 312 618
e 312 534
e 313 588
e 313 899
e 313 885
e 313 451
e 314 430
e 314 581
e 314 502
e 314 386
e 314 610
e 315 967
e 316 969
e 316 897
e 316 649
e 316 553
e 318 895
e 318 484
e 318 478
e 318 738
e 319 353
e 319 785
e 320 626
e 320 737
e 320 929
e 320 735
e 321 989
e 321 614
e 321 993
e 321 484
e 322 684
e 322 437
e 322 522
e 322 915
e 323 562
e 323 347
e 324 737
e 324 918
e 324 715
e 324 532
e 326 435
e 327 840
e 327 951
e 327 998
e 327 610
e 327 479
e 327 713
e 328 680
e 328 956
e 328 988
e 330 664
e 330 856
e 330 597
e 330 911
e 330 507
e 330 929
e 330 728
e 331 911
e 332 462
e 333 744
e 336 563
e 336 693
e 336 792
e 336 958
e 337 969
e 337 955
e 339 956
e 339 473
e 339 614
e 340 345
e 340 804
e 340 352
e 340 439
e 340 471
e 341 940
e 342 764
e 344 404
e 344 675
e 345 901
e 345 719
e 346 877
e 346 407
e 346 696
e 346 759
e 346 416
e 347 377
e 347 379
e 348 841
e 348 973
e 348 617
e 348 431
e 349 898
e 349 721
e 349 983
e 350 762
e 350 546
e 350 416
e 350 370
e 352 909
e 352 657
e 352 775
e 353 597
e 353 451
e 353 700
e 355 460
e 355 961
e 355 884
e 355 793
e 356 730
e 356 842
e 356 938
e 356 460
e 357 827
e 357 580
e 357 806
e 358 619
e 359 373
e 359 936
e 359 417
e 360 365
e 360 719
e 362 998
e 362 680
e 362 883
e 362 662
e 363 622
e 364 463
e 364 499
e 364 723
e 364 474
e 365 654
e 365 584
e 366 895
e 366 733
e 366 463
e 366 378
e 366 423
e 367 502
e 367 493
e 367 681
e 370 695
e 370 871
e 370 633
e 371 481
e 371 573
e 371 961
e 372 899
e 372 764
e 373 484
e 373 691
e 373 754
e 374 594
e 374 584
e 374 538
e 374 896
e 375 742
e 375 869
e 375 518
e 375 421
e 375 592
e 376 467
e 376 696
e 377 766
e 377 599
e 377 839
e 377 617
e 378 404
e 378 929
e 378 513
e 378 892
e 378 591
e 378 778
e 379 979
e 379 430
e 379 977
e 383 645
e 383 909
e 383 633
e 385 786
e 385 941
e 385 393
e 385 584
e 386 923
e 386 487
e 386 652
e 386 982
e 387 665
e 387 478
e 387 598
e 387 973
e 388 779
e 388 969
e 388 681
e 391 716
e 391 881
e 392 744
e 393 828
e 393 577
e 393 839
e 394 650
e 394 426
e 394 410
e 395 987
e 395 427
e 395 430
e 395 520
e 395 600
e 395 571
e 397 934
e 397 986
e 397 991
e 398 765
e 398 714
e 400 522
e 400 785
e 400 657
e 400 642
e 401 587
e 401 521
e 404 909
e 404 764
e 404 804
e 405 415
e 405 692
e 405 451
e 405 498
e 407 444
e 407 759
e 408 533
e 408 762
e 408 464
e 410 900
e 410 451
e 412 955
e 412 979
e 412 919
e 413 908
e 413 727
e 413 606
e 413 624
e 414 767
e 414 430
e 416 739
e 416 435
e 416 846
e 416 641
e 416 497
e 416 995
e 417 642
e 417 622
e 417 446
e 418 439
e 418 609
e 418 668
e 419 881
e 419 901
e 419 690
e 419 698
e 420 440
e 421 967
e 421 648
e 422 496
e 422 986
e 422 583
e 422 898
e 422 775
e 423 814
e 423 913
e 423 509
e 423 827
e 423 499
e 423 705
e 424 879
e 424 954
e 424 995
e 426 771
e 426 870
e 427 975
e 429 741
e 430 726
e 430 688
e 430 736
e 431 577
e 431 831
e 434 881
e 434 694
e 434 626
e 435 852
e 435 773
e 435 527
e 435 599
e 437 555
e 437 704
e 438 880
e 438 533
e 439 478
e 440 710
e 440 736
e 440 894
e 444 846
e 444 614
e 444 778
e 444 656
e 444 830
e 446 901
e 447 508
e 448 518
e 448 960
e 448 708
e 449 588
e 449 848
e 449 742
e 449 948
e 450 584
e 450 757
e 450 532
e 451 506
e 453 654
e 453 723
e 453 793
e 458 858
e 458 955
e 459 882
e 459 495
e 460 690
e 461 543
e 461 472
e 461 612
e 461 625
e 462 530
e 462 642
e 463 580
e 463 824
e 464 892
e 464 750
e 465 745
e 465 573
e 465 905
e 465 522
e 466 526
e 466 820
e 466 734
e 467 944
e 469 704
e 469 832
e 470 671
e 470 492
e 470 600
e 471 579
e 472 501
e 472 690
e 473 820
e 473 846
e 473 833
e 473 822
e 473 692
e 474 802
e 474 754
e 474 931
e 474 551
e 474 916
e 474 761
e 475 917
e 475 644
e 477 956
e 477 680
e 477 587
e 477 488
e 478 665
e 479 731
e 479 522
e 484 835
e 485 727
e 485 735
e 485 571
e 485 964
e 487 784
e 490 800
e 490 839
e 492 659
e 492 581
e 492 992
e 492 776
e 492 703
e 492 794
e 493 730
e 493 754
e 494 604
e 494 945
e 494 910
e 495 576
e 495 536
e 495 527
e 495 812
e 496 863
e 496 1000
e 496 772
e 497 555
e 498 567
e 499 991
e 500 541
e 502 842
e 502 833
e 502 665
e 502 588
e 503 717
e 503 725
e 503 954
e 506 731
e 506 875
e 506 923
e 506 912
e 507 718
e 507 765
e 507 918
e 507 656
e 508 566
e 509 708
e 509 850
e 512 540
e 512 612
e 512 731
e 513 721
e 513 645
e 513 526
e 514 722
e 514 565
e 514 688
e 514 590
e 514 640
e 515 787
e 515 967
e 515 822
e 516 866
e 516 627
e 518 903
e 518 787
e 518 804
e 520 951
e 520 645
e 521 908
e 522 764
e 522 722
e 522 674
e 525 529
e 525 556
e 525 718
e 525 987
e 525 571
e 526 679
e 526 985
e 526 852
e 528 905
e 528 719
e 528 986
e 530 851
e 530 898
e 530 682
e 532 969
e 532 981
e 534 819
e 534 655
e 534 883
e 534 751
e 534 786
e 536 740
e 536 557
e 538 981
e 538 964
e 540 794
e 540 684
e 541 578
e 541 573
e 543 546
e 544 648
e 544 937
e 544 973
e 545 992
e 545 897
e 545 733
e 546 774
e 546 848
e 546 791
e 547 657
e 547 973
e 550 800
e 550 688
e 551 880
e 551 614
e 551 571
e 552 896
e 552 718
e 552 923
e 553 600
e 553 765
e 553 654
e 553 589
e 554 787
e 555 581
e 556 860
e 556 761
e 556 934
e 557 654
e 557 770
e 558 801
e 558 827
e 558 644
e 560 904
e 560 674
e 562 997
e 562 730
e 563 754
e 563 703
e 563 726
e 565 957
e 566 683
e 566 713
e 567 757
e 567 818
e 569 644
e 569 730
e 570 748
e 570 622
e 571 899
e 572 877
e 572 682
e 572 909
e 573 1000
e 573 649
e 573 641
e 573 739
e 576 596
e 577 890
e 578 848
e 578 804
e 579 668
e 580 617
e 580 768
e 580 610
e 580 874
e 581 983
e 582 705
e 582 972
e 582 929
e 583 797
e 583 977
e 587 640
e 587 731
e 587 920
e 588 767
e 588 773
e 588 741
e 588 795
e 588 874
e 589 841
e 590 602
e 592 899
e 593 961
e 594 715
e 594 766
e 594 949
e 595 877
e 595 672
e 595 721
e 595 838
e 595 804
e 596 734
e 596 806
e 596 961
e 597 782
e 598 693
e 598 851
e 598 755
e 599 928
e 599 748
e 601 673
e 602 641
e 602 863
e 602 849
e 604 925
e 604 991
e 605 925
e 606 911
e 606 642
e 608 826
e 609 618
e 609 879
e 609 654
e 610 792
e 611 680
e 611 775
e 611 649
e 612 792
e 614 814
e 617 768
e 617 737
e 617 960
e 618 750
e 618 807
e 618 641
e 619 688
e 619 993
e 621 703
e 622 987
e 622 882
e 625 883
e 626 776
e 626 772
e 627 998
e 627 846
e 627 712
e 627 662
e 632 977
e 633 771
e 633 923
e 633 773
e 633 789
e 633 726
e 633 702
e 640 779
e 641 677
e 641 986
e 642 691
e 644 904
e 644 875
e 644 921
e 646 870
e 646 714
e 646 859
e 646 739
e 647 817
e 647 937
e 647 832
e 648 903
e 650 767
e 650 975
e 650 880
e 651 992
e 651 718
e 651 709
e 652 988
e 654 665
e 654 942
e 655 688
e 656 963
e 659 980
e 660 785
e 660 841
e 661 827
e 661 975
e 661 792
e 661 806
e 661 781
e 661 794
e 664 925
e 664 766
e 665 775
e 666 716
e 666 742
e 667 776
e 667 755
e 671 962
e 672 767
e 673 750
e 676 693
e 676 745
e 677 888
e 677 766
e 679 851
e 679 726
e 680 944
e 680 816
e 680 787
e 681 904
e 681 716
e 682 807
e 691 782
e 692 990
e 692 713
e 693 797
e 693 987
e 695 856
e 696 763
e 698 852
e 698 731
e 702 897
e 704 827
e 704 990
e 707 789
e 707 990
e 707 744
e 707 730
e 708 745
e 709 771
e 710 717
e 711 781
e 713 757
e 714 953
e 716 784
e 717 841
e 719 897
e 719 764
e 721 917
e 722 944
e 723 900
e 723 972
e 723 749
e 724 955
e 725 835
e 725 953
e 725 795
e 727 995
e 727 955
e 727 869
e 727 772
e 727 1000
e 728 869
e 728 999
e 733 828
e 734 884
e 735 817
e 736 800
e 736 778
e 736 953
e 738 768
e 738 854
e 738 917
e 739 963
e 740 979
e 740 950
e 741 827
e 742 909
e 744 775
e 748 909
e 748 791
e 749 927
e 749 916
e 751 885
e 754 832
e 754 999
e 755 786
e 759 850
e 759 992
e 761 911
e 763 927
e 763 973
e 763 804
e 765 773
e 766 923
e 767 885
e 767 938
e 770 845
e 772 999
e 772 841
e 774 806
e 777 795
e 777 824
e 777 972
e 778 957
e 781 828
e 784 798
e 785 929
e 787 919
e 789 883
e 790 818
e 792 916
e 793 941
e 793 859
e 794 970
e 797 909
e 797 837
e 797 880
e 798 970
e 798 877
e 802 864
e 802 845
e 803 821
e 803 914
e 804 886
e 804 828
e 807 967
e 807 863
e 807 925
e 807 816
e 812 865
e 819 914
e 819 918
e 821 862
e 821 912
e 822 871
e 822 873
e 824 883
e 824 868
e 826 985
e 827 838
e 828 896
e 830 937
e 831 963
e 832 939
e 832 931
e 832 983
e 833 936
e 838 891
e 839 886
e 840 884
e 840 842
e 841 885
e 845 856
e 848 934
e 848 909
e 849 894
e 853 917
e 853 903
e 854 899
e 855 903
e 855 982
e 856 965
e 858 998
e 859 935
e 860 947
e 862 917
e 862 945
e 864 974
e 866 991
e 868 982
e 870 896
e 871 938
e 877 897
e 877 962
e 880 939
e 881 989
e 883 983
e 884 949
e 891 951
e 894 939
e 894 957
e 895 941
e 897 955
e 899 951
e 900 934
e 901 929
e 903 935
e 903 928
e 903 961
e 903 999
e 903 936
e 905 997
e 908 977
e 909 927
e 909 935
e 912 989
e 913 948
e 914 931
e 917 954
e 917 991
e 920 925
e 927 987
e 931 947
e 934 937
e 936 991
e 937 942
e 940 997
e 942 973
e 944 962
e 945 998
e 970 985
e 975 987
