txt_Ins/graph-1000-9.txt
n 1000
e 0 769
e 0 348
e 0 553
e 1 841
e 1 68
e 1 187
e 1 872
e 1 325
e 1 193
e 1 737
e 2 583
e 2 48
e 2 308
e 2 309
e 2 837
e 2 969
e 4 858
e 4 264
e 4 98
e 4 199
e 4 400
e 6 623
e 6 21
e 6 971
e 7 65
e 7 732
e 7 157
e 7 963
e 7 166
e 8 692
e 8 191
e 8 784
e 10 852
e 10 279
e 10 979
e 10 994
e 10 463
e 10 112
e 10 414
e 12 559
e 12 778
e 12 429
e 12 912
e 12 345
e 12 361
e 13 973
e 13 217
e 13 313
e 13 896
e 14 710
e 14 640
e 14 394
e 15 791
e 15 531
e 15 300
e 15 486
e 16 362
e 16 926
e 16 939
e 16 887
e 16 94
e 16 428
e 17 934
e 17 978
e 17 806
e 17 325
e 17 772
e 21 500
e 21 484
e 21 351
e 21 989
e 21 41
e 21 729
e 22 592
e 22 770
e 22 309
e 22 867
e 22 529
e 22 557
e 23 632
e 23 315
e 23 443
e 23 302
e 23 569
e 24 529
e 24 701
e 24 118
e 24 71
e 24 920
e 25 907
e 25 674
e 25 233
e 25 123
e 26 372
e 26 800
e 26 832
e 26 314
e 27 452
e 27 396
e 27 74
e 29 205
e 29 249
e 29 926
e 29 251
e 29 73
e 29 845
e 29 74
e 30 911
e 30 785
e 30 800
e 30 968
e 30 283
e 32 980
e 32 968
e 32 175
e 32 264
e 32 927
e 33 710
e 33 949
e 33 369
e 33 184
e 33 361
e 33 136
e 35 463
e 35 78
e 35 394
e 35 914
e 35 490
e 35 243
e 35 699
e 35 550
e 35 732
e 35 62
e 36 148
e 36 580
e 36 532
e 36 941
e 36 124
e 36 741
e 36 774
e 36 484
e 37 600
e 37 477
e 37 733
e 37 803
e 37 963
e 38 94
e 38 507
e 38 689
e 38 347
e 39 67
e 39 187
e 39 937
e 39 711
e 39 704
e 39 168
e 39 390
e 40 979
e 40 213
e 40 295
e 40 279
e 41 542
e 41 834
e 41 887
e 41 590
e 41 99
e 41 553
e 43 391
e 43 325
e 43 987
e 43 375
e 43 822
e 43 94
e 43 257
e 44 959
e 44 198
e 44 413
e 44 384
e 44 873
e 44 159
e 44 214
e 44 936
e 44 556
e 45 865
e 45 72
e 45 308
e 45 483
e 46 64
e 46 423
e 46 601
e 46 502
e 46 957
e 46 834
e 46 239
e 47 407
e 47 815
e 47 546
e 47 343
e 47 327
e 47 300
e 48 126
e 48 738
e 48 906
e 48 501
e 49 663
e 49 590
e 49 370
e 49 140
e 49 312
e 50 910
e 50 461
e 50 312
e 50 490
e 53 86
e 53 992
e 53 736
e 54 286
e 54 607
e 54 819
e 54 655
e 54 463
e 54 989
e 55 163
e 55 559
e 55 186
e 58 477
e 58 135
e 58 118
e 58 75
e 58 950
e 58 506
e 59 994
e 59 113
e 59 366
e 60 647
e 60 517
e 60 69
e 61 400
e 61 644
e 61 568
e 62 174
e 62 820
e 62 218
e 62 253
e 63 790
e 63 869
e 63 930
e 64 459
e 64 299
e 64 357
e 65 670
e 65 285
e 65 989
e 65 706
e 65 815
e 67 281
e 67 191
e 67 740
e 67 336
e 68 506
e 68 841
e 68 450
e 68 979
e 69 499
e 69 949
e 69 374
e 69 623
e 70 392
e 70 674
e 70 247
e 70 365
e 71 764
e 71 528
e 71 480
e 71 586
e 72 228
e 72 694
e 72 667
e 72 270
e 72 257
e 72 354
e 72 313
e 73 693
e 73 880
e 73 203
e 74 150
e 74 417
e 75 723
e 75 708
e 75 666
e 75 449
e 76 623
e 76 665
e 76 599
e 76 750
e 78 244
e 78 520
e 78 472
e 78 976
e 79 268
e 79 535
e 79 562
e 79 964
e 82 748
e 82 492
e 82 278
e 82 266
e 82 236
e 83 693
e 83 355
e 83 864
e 83 889
e 83 772
e 83 878
e 85 891
e 85 239
e 85 352
e 86 775
e 86 339
e 86 239
e 86 106
e 86 119
e 87 618
e 87 437
e 87 761
e 89 765
e 89 112
e 89 915
e 90 617
e 90 690
e 90 253
e 91 941
e 91 112
e 91 936
e 91 689
e 91 252
e 93 797
e 93 974
e 93 532
e 93 340
e 93 827
e 94 786
e 94 327
e 94 811
e 94 758
e 95 958
e 95 250
e 95 896
e 95 959
e 95 338
e 97 535
e 97 762
e 97 533
e 97 422
e 98 743
e 98 122
e 98 294
e 99 859
e 99 112
e 99 611
e 99 330
e 100 219
e 100 322
e 100 748
e 100 673
e 100 947
e 101 478
e 101 439
e 101 343
e 101 863
e 101 261
e 103 463
e 103 331
e 103 310
e 103 837
e 104 767
e 104 676
e 104 227
e 104 127
e 105 193
e 105 857
e 105 950
e 105 919
e 106 344
e 106 245
e 106 903
e 106 332
e 106 250
e 110 689
e 110 918
e 110 756
e 112 944
e 112 185
e 113 845
e 113 955
e 113 948
e 113 537
e 114 934
e 114 735
e 114 906
e 116 374
e 116 911
e 116 582
e 117 874
e 117 675
e 117 221
e 117 588
e 118 733
e 118 829
e 118 559
e 119 914
e 119 533
e 119 719
e 119 387
e 121 192
e 121 881
e 121 895
e 121 245
e 121 673
e 121 439
e 121 950
e 122 766
e 122 690
e 122 982
e 122 501
e 122 320
e 122 280
e 122 186
e 123 254
e 123 329
e 123 610
e 123 872
e 124 797
e 124 271
e 124 499
e 126 758
e 126 562
e 126 452
e 127 813
e 127 962
e 128 545
e 128 497
e 128 325
e 128 604
e 129 796
e 129 789
e 129 683
e 129 486
e 129 537
e 129 823
e 129 426
e 132 532
e 132 143
e 132 176
e 132 683
e 132 785
e 133 591
e 133 961
e 133 317
e 133 412
e 134 865
e 134 896
e 134 950
e 134 539
e 135 792
e 135 239
e 135 911
e 135 851
e 135 449
e 135 357
e 136 437
e 136 270
e 137 761
e 137 801
e 137 338
e 140 394
e 140 438
e 140 322
e 140 198
e 140 600
e 140 469
e 142 756
e 142 624
e 142 514
e 142 458
e 143 909
e 143 489
e 143 903
e 143 251
e 143 222
e 144 474
e 144 885
e 144 233
e 148 919
e 148 899
e 148 830
e 148 865
e 148 857
e 148 537
e 148 220
e 149 262
e 149 765
e 149 867
e 149 468
e 150 704
e 150 583
e 150 811
e 151 277
e 151 449
e 151 784
e 151 513
e 151 327
e 151 462
e 154 964
e 154 708
e 154 719
e 156 466
e 156 349
e 156 285
e 156 192
e 157 992
e 157 570
e 157 663
e 157 924
e 157 656
e 158 507
e 158 384
e 158 682
e 159 190
e 159 709
e 159 547
e 161 980
e 161 663
e 161 681
e 161 480
e 161 374
e 162 330
e 162 498
e 162 386
e 162 306
e 162 904
e 162 827
e 163 840
e 163 665
e 163 673
e 164 341
e 164 769
e 164 887
e 165 547
e 165 855
e 165 695
e 166 823
e 166 997
e 166 331
e 166 832
e 166 310
e 167 352
e 167 625
e 167 528
e 168 452
e 168 580
e 168 489
e 168 737
e 169 672
e 169 878
e 169 760
e 169 976
e 169 327
e 169 224
e 171 355
e 171 396
e 171 774
e 173 276
e 173 447
e 173 564
e 173 330
e 173 868
e 174 594
e 174 874
e 174 682
e 174 661
e 174 496
e 174 352
e 174 737
e 175 946
e 175 849
e 175 183
e 175 658
e 175 340
e 175 330
e 176 693
e 176 578
e 176 594
e 176 607
e 176 473
e 177 589
e 177 711
e 177 590
e 177 997
e 177 773
e 179 939
e 179 699
e 179 863
e 179 468
e 179 247
e 180 592
e 180 689
e 180 588
e 180 187
e 180 385
e 181 641
e 181 371
e 181 309
e 181 491
e 181 604
e 182 976
e 182 566
e 182 225
e 183 238
e 183 773
e 183 266
e 184 197
e 184 957
e 184 418
e 184 599
e 185 525
e 185 624
e 185 419
e 185 450
e 186 382
e 186 406
e 186 647
e 186 891
e 186 976
e 186 370
e 187 193
e 189 817
e 189 527
e 189 190
e 189 648
e 190 760
e 190 249
e 190 278
e 191 994
e 191 972
e 192 250
e 192 978
e 192 708
e 192 822
e 192 462
e 192 765
e 193 279
e 194 903
e 194 363
e 194 758
e 194 620
e 194 261
e 194 307
e 194 864
e 196 854
e 196 665
e 196 235
e 197 332
e 197 294
e 198 391
e 198 844
e 198 897
e 198 526
e 199 903
e 199 446
e 199 314
e 200 747
e 200 252
e 200 715
e 201 525
e 201 545
e 201 889
e 201 611
e 203 895
e 203 514
e 203 850
e 205 617
e 205 556
e 205 946
e 206 920
e 206 399
e 206 702
e 208 357
e 208 858
e 208 262
e 208 420
e 211 524
e 211 966
e 211 469
e 211 294
e 212 262
e 212 947
e 212 532
e 213 461
e 213 631
e 214 247
e 214 890
e 214 420
e 214 609
e 216 222
e 216 781
e 216 390
e 216 369
e 217 624
e 217 371
e 217 571
e 218 449
e 218 445
e 219 468
e 219 894
e 219 428
e 219 961
e 220 507
e 220 908
e 220 723
e 220 341
e 221 838
e 221 255
e 222 447
e 222 816
e 222 879
e 222 764
e 224 850
e 224 920
e 224 838
e 225 778
e 225 966
e 225 712
e 226 430
e 226 758
e 226 578
e 226 819
e 226 346
e 227 434
e 227 237
e 227 450
e 227 480
e 227 955
e 227 909
e 228 617
e 228 778
e 228 374
e 232 683
e 232 823
e 232 472
e 232 718
e 233 501
e 233 354
e 233 683
e 234 643
e 234 261
e 234 811
e 234 537
e 234 603
e 235 661
e 235 832
e 236 284
e 236 963
e 237 661
e 237 318
e 237 609
e 237 470
e 237 852
e 237 257
e 237 933
e 238 407
e 238 306
e 238 853
e 238 783
e 238 496
e 238 341
e 239 697
e 239 549
e 239 974
e 240 484
e 240 737
e 240 555
e 241 422
e 241 311
e 241 521
e 243 286
e 243 910
e 243 958
e 243 783
e 244 414
e 244 758
e 244 520
e 245 913
e 245 729
e 247 436
e 249 369
e 250 446
e 250 544
e 250 375
e 250 487
e 250 499
e 250 498
e 250 385
e 251 608
e 251 330
e 251 836
e 251 473
e 252 848
e 252 702
e 252 939
e 252 362
e 253 789
e 253 528
e 254 493
e 254 361
e 255 311
e 255 321
e 255 620
e 255 327
e 257 490
e 257 335
e 257 540
e 257 496
e 258 507
e 258 950
e 258 492
e 258 506
e 259 653
e 259 603
e 259 506
e 260 695
e 260 425
e 260 533
e 261 719
e 261 859
e 261 910
e 261 323
e 262 770
e 264 897
e 264 582
e 266 853
e 266 363
e 266 419
e 268 487
e 268 789
e 270 314
e 271 524
e 271 551
e 271 822
e 272 840
e 272 989
e 272 285
e 272 457
e 273 618
e 273 711
e 273 397
e 273 396
e 274 737
e 274 840
e 274 501
e 274 792
e 274 544
e 274 466
e 275 393
e 275 947
e 275 654
e 275 329
e 275 909
e 275 683
e 276 671
e 276 661
e 277 659
e 277 325
e 277 500
e 277 576
e 278 985
e 278 570
e 278 825
e 278 314
e 279 743
e 279 466
e 279 438
e 280 586
e 280 623
e 280 712
e 280 352
e 280 374
e 280 531
e 280 406
e 281 734
e 281 821
e 283 873
e 283 697
e 283 689
e 283 391
e 283 364
e 283 457
e 284 409
e 284 934
e 285 550
e 285 873
e 285 618
e 285 802
e 286 895
e 286 896
e 286 617
e 286 359
e 286 299
e 286 848
e 287 836
e 287 363
e 287 547
e 287 577
e 290 958
e 290 533
e 290 537
e 290 651
e 290 409
e 290 944
e 295 707
e 295 515
e 295 505
e 295 650
e 295 802
e 297 950
e 297 817
e 297 608
e 298 575
e 298 582
e 298 973
e 298 631
e 299 546
e 299 741
e 299 853
e 299 852
e 300 478
e 300 680
e 300 493
e 302 675
e 302 719
e 302 906
e 306 714
e 306 407
e 307 773
e 307 318
e 307 922
e 308 399
e 309 437
e 309 603
e 309 618
e 309 639
e 309 702
e 309 777
e 310 794
e 310 626
e 310 753
e 310 991
e 310 996
e 310 369
e 311 917
e 311 617
e 311 533
e 312 587
e 312 898
e 312 884
e 312 450
e 313 429
e 313 580
e 313 501
e 313 385
e 313 609
e 314 966
e 315 968
e 315 896
e 315 648
e 315 552
e 317 894
e 317 483
e 317 477
e 317 737
e 318 352
e 318 784
e 319 625
e 319 736
e 319 928
e 319 734
e 320 988
e 320 613
e 320 992
e 320 483
e 321 683
e 321 436
e 321 521
e 321 914
e 322 561
e 322 346
e 323 736
e 323 917
e 323 714
e 323 531
e 325 434
e 326 839
e 326 950
e 326 997
e 326 609
e 326 478
e 326 712
e 327 679
e 327 955
e 327 987
e 329 663
e 329 855
e 329 596
e 329 910
e 329 506
e 329 928
e 329 727
e 330 910
e 331 461
e 332 743
e 335 562
e 335 692
e 335 791
e 335 957
e 336 968
e 336 954
e 338 955
e 338 472
e 338 613
e 339 344
e 339 803
e 339 351
e 339 438
e 339 470
e 340 939
e 341 763
e 343 403
e 343 674
e 344 900
e 344 718
e 345 876
e 345 406
e 345 695
e 345 758
e 345 415
e 346 376
e 346 378
e 347 840
e 347 972
e 347 616
e 347 430
e 348 897
e 348 720
e 348 982
e 349 761
e 349 545
e 349 415
e 349 369
e 351 908
e 351 656
e 351 774
e 352 596
e 352 450
e 352 699
e 354 459
e 354 960
e 354 883
e 354 792
e 355 729
e 355 841
e 355 937
e 355 459
e 356 826
e 356 579
e 356 805
e 357 618
e 358 372
e 358 935
e 358 416
e 359 364
e 359 718
e 361 997
e 361 679
e 361 882
e 361 661
e 362 621
e 363 462
e 363 498
e 363 722
e 363 473
e 364 653
e 364 583
e 365 894
e 365 732
e 365 462
e 365 377
e 365 422
e 366 501
e 366 492
e 366 680
e 369 694
e 369 870
e 369 632
e 370 480
e 370 572
e 370 960
e 371 898
e 371 763
e 372 483
e 372 690
e 372 753
e 373 593
e 373 583
e 373 537
e 373 895
e 374 741
e 374 868
e 374 517
e 374 420
e 374 591
e 375 466
e 375 695
e 376 765
e 376 598
e 376 838
e 376 616
e 377 403
e 377 928
e 377 512
e 377 891
e 377 590
e 377 777
e 378 978
e 378 429
e 378 976
e 382 644
e 382 908
e 382 632
e 384 785
e 384 940
e 384 392
e 384 583
e 385 922
e 385 486
e 385 651
e 385 981
e 386 664
e 386 477
e 386 597
e 386 972
e 387 778
e 387 968
e 387 680
e 390 715
e 390 880
e 391 743
e 392 827
e 392 576
e 392 838
e 393 649
e 393 425
e 393 409
e 394 986
e 394 426
e 394 429
e 394 519
e 394 599
e 394 570
e 396 933
e 396 985
e 396 990
e 397 764
e 397 713
e 399 521
e 399 784
e 399 656
e 399 641
e 400 586
e 400 520
e 403 908
e 403 763
e 403 803
e 404 414
e 404 691
e 404 450
e 404 497
e 406 443
e 406 758
e 407 532
e 407 761
e 407 463
e 409 899
e 409 450
e 411 954
e 411 978
e 411 918
e 412 907
e 412 726
e 412 605
e 412 623
e 413 766
e 413 429
e 415 738
e 415 434
e 415 845
e 415 640
e 415 496
e 415 994
e 416 641
e 416 621
e 416 445
e 417 438
e 417 608
e 417 667
e 418 880
e 418 900
e 418 689
e 418 697
e 419 439
e 420 966
e 420 647
e 421 495
e 421 985
e 421 582
e 421 897
e 421 774
e 422 813
e 422 912
e 422 508
e 422 826
e 422 498
e 422 704
e 423 878
e 423 953
e 423 994
e 425 770
e 425 869
e 426 974
e 428 740
e 429 725
e 429 687
e 429 735
e 430 576
e 430 830
e 433 880
e 433 693
e 433 625
e 434 851
e 434 772
e 434 526
e 434 598
e 436 554
e 436 703
e 437 879
e 437 532
e 438 477
e 439 709
e 439 735
e 439 893
e 443 845
e 443 613
e 443 777
e 443 655
e 443 829
e 445 900
e 446 507
e 447 517
e 447 959
e 447 707
e 448 587
e 448 847
e 448 741
e 448 947
e 449 583
e 449 756
e 449 531
e 450 505
e 452 653
e 452 722
e 452 792
e 457 857
e 457 954
e 458 881
e 458 494
e 459 689
e 460 542
e 460 471
e 460 611
e 460 624
e 461 529
e 461 641
e 462 579
e 462 823
e 463 891
e 463 749
e 464 744
e 464 572
e 464 904
e 464 521
e 465 525
e 465 819
e 465 733
e 466 943
e 468 703
e 468 831
e 469 670
e 469 491
e 469 599
e 470 578
e 471 500
e 471 689
e 472 819
e 472 845
e 472 832
e 472 821
e 472 691
e 473 801
e 473 753
e 473 930
e 473 550
e 473 915
e 473 760
e 474 916
e 474 643
e 476 955
e 476 679
e 476 586
e 476 487
e 477 664
e 478 730
e 478 521
e 483 834
e 484 726
e 484 734
e 484 570
e 484 963
e 486 783
e 489 799
e 489 838
e 491 658
e 491 580
e 491 991
e 491 775
e 491 702
e 491 793
e 492 729
e 492 753
e 493 603
e 493 944
e 493 909
e 494 575
e 494 535
e 494 526
e 494 811
e 495 862
e 495 999
e 495 771
e 496 554
e 497 566
e 498 990
e 499 540
e 501 841
e 501 832
e 501 664
e 501 587
e 502 716
e 502 724
e 502 953
e 505 730
e 505 874
e 505 922
e 505 911
e 506 717
e 506 764
e 506 917
e 506 655
e 507 565
e 508 707
e 508 849
e 511 539
e 511 611
e 511 730
e 512 720
e 512 644
e 512 525
e 513 721
e 513 564
e 513 687
e 513 589
e 513 639
e 514 786
e 514 966
e 514 821
e 515 865
e 515 626
e 517 902
e 517 786
e 517 803
e 519 950
e 519 644
e 520 907
e 521 763
e 521 721
e 521 673
e 524 528
e 524 555
e 524 717
e 524 986
e 524 570
e 525 678
e 525 984
e 525 851
e 527 904
e 527 718
e 527 985
e 529 850
e 529 897
e 529 681
e 531 968
e 531 980
e 533 818
e 533 654
e 533 882
e 533 750
e 533 785
e 535 739
e 535 556
e 537 980
e 537 963
e 539 793
e 539 683
e 540 577
e 540 572
e 542 545
e 543 647
e 543 936
e 543 972
e 544 991
e 544 896
e 544 732
e 545 773
e 545 847
e 545 790
e 546 656
e 546 972
e 549 799
e 549 687
e 550 879
e 550 613
e 550 570
e 551 895
e 551 717
e 551 922
e 552 599
e 552 764
e 552 653
e 552 588
e 553 786
e 554 580
e 555 859
e 555 760
e 555 933
e 556 653
e 556 769
e 557 800
e 557 826
e 557 643
e 559 903
e 559 673
e 561 996
e 561 729
e 562 753
e 562 702
e 562 725
e 564 956
e 565 682
e 565 712
e 566 756
e 566 817
e 568 643
e 568 729
e 569 747
e 569 621
e 570 898
e 571 876
e 571 681
e 571 908
e 572 999
e 572 648
e 572 640
e 572 738
e 575 595
e 576 889
e 577 847
e 577 803
e 578 667
e 579 616
e 579 767
e 579 609
e 579 873
e 580 982
e 581 704
e 581 971
e 581 928
e 582 796
e 582 976
e 586 639
e 586 730
e 586 919
e 587 766
e 587 772
e 587 740
e 587 794
e 587 873
e 588 840
e 589 601
e 591 898
e 592 960
e 593 714
e 593 765
e 593 948
e 594 876
e 594 671
e 594 720
e 594 837
e 594 803
e 595 733
e 595 805
e 595 960
e 596 781
e 597 692
e 597 850
e 597 754
e 598 927
e 598 747
e 600 672
e 601 640
e 601 862
e 601 848
e 603 924
e 603 990
e 604 924
e 605 910
e 605 641
e 607 825
e 608 617
e 608 878
e 608 653
e 609 791
e 610 679
e 610 774
e 610 648
e 611 791
e 613 813
e 616 767
e 616 736
e 616 959
e 617 749
e 617 806
e 617 640
e 618 687
e 618 992
e 620 702
e 621 986
e 621 881
e 624 882
e 625 775
e 625 771
e 626 997
e 626 845
e 626 711
e 626 661
e 631 976
e 632 770
e 632 922
e 632 772
e 632 788
e 632 725
e 632 701
e 639 778
e 640 676
e 640 985
e 641 690
e 643 903
e 643 874
e 643 920
e 645 869
e 645 713
e 645 858
e 645 738
e 646 816
e 646 936
e 646 831
e 647 902
e 649 766
e 649 974
e 649 879
e 650 991
e 650 717
e 650 708
e 651 987
e 653 664
e 653 941
e 654 687
e 655 962
e 658 979
e 659 784
e 659 840
e 660 826
e 660 974
e 660 791
e 660 805
e 660 780
e 660 793
e 663 924
e 663 765
e 664 774
e 665 715
e 665 741
e 666 775
e 666 754
e 670 961
e 671 766
e 672 749
e 675 692
e 675 744
e 676 887
e 676 765
e 678 850
e 678 725
e 679 943
e 679 815
e 679 786
e 680 903
e 680 715
e 681 806
e 690 781
e 691 989
e 691 712
e 692 796
e 692 986
e 694 855
e 695 762
e 697 851
e 697 730
e 701 896
e 703 826
e 703 989
e 706 788
e 706 989
e 706 743
e 706 729
e 707 744
e 708 770
e 709 716
e 710 780
e 712 756
e 713 952
e 715 783
e 716 840
e 718 896
e 718 763
e 720 916
e 721 943
e 722 899
e 722 971
e 722 748
e 723 954
e 724 834
e 724 952
e 724 794
e 726 994
e 726 954
e 726 868
e 726 771
e 726 999
e 727 868
e 727 998
e 732 827
e 733 883
e 734 816
e 735 799
e 735 777
e 735 952
e 737 767
e 737 853
e 737 916
e 738 962
e 739 978
e 739 949
e 740 826
e 741 908
e 743 774
e 747 908
e 747 790
e 748 926
e 748 915
e 750 884
e 753 831
e 753 998
e 754 785
e 758 849
e 758 991
e 760 910
e 762 926
e 762 972
e 762 803
e 764 772
e 765 922
e 766 884
e 766 937
e 769 844
e 771 998
e 771 840
e 773 805
e 776 794
e 776 823
e 776 971
e 777 956
e 780 827
e 783 797
e 784 928
e 786 918
e 788 882
e 789 817
e 791 915
e 792 940
e 792 858
e 793 969
e 796 908
e 796 836
e 796 879
e 797 969
e 797 876
e 801 863
e 801 844
e 802 820
e 802 913
e 803 885
e 803 827
e 806 966
e 806 862
e 806 924
e 806 815
e 811 864
e 818 913
e 818 917
e 820 861
e 820 911
e 821 870
e 821 872
e 823 882
e 823 867
e 825 984
e 826 837
e 827 895
e 829 936
e 830 962
e 831 938
e 831 930
e 831 982
e 832 935
e 837 890
e 838 885
e 839 883
e 839 841
e 840 884
e 844 855
e 847 933
e 847 908
e 848 893
e 852 916
e 852 902
e 853 898
e 854 902
e 854 981
e 855 964
e 857 997
e 858 934
e 859 946
e 861 916
e 861 944
e 863 973
e 865 990
e 867 981
e 869 895
e 870 937
e 876 896
e 876 961
e 879 938
e 880 988
e 882 982
e 883 948
e 890 950
e 893 938
e 893 956
e 894 940
e 896 954
e 898 950
e 899 933
e 900 928
e 902 934
e 902 927
e 902 960
e 902 998
e 902 935
e 904 996
e 907 976
e 908 926
e 908 934
e 911 988
e 912 947
e 913 930
e 916 953
e 916 990
e 919 924
e 926 986
e 930 946
e 933 936
e 935 990
e 936 941
e 939 996
e 941 972
e 943 961
e 944 997
e 969 984
e 974 986
